unknown
(model
; cardinality of BoundSet is 4
(declare-sort BoundSet 0)
; rep: @uc_BoundSet_0
; rep: @uc_BoundSet_1
; rep: @uc_BoundSet_2
; rep: @uc_BoundSet_3
; cardinality of UnboundSet is 1
(declare-sort UnboundSet 0)
(declare-fun groundTerm_5 () UnboundSet)
(define-fun PlaysTogether ((BOUND_VARIABLE_434 BoundSet) (BOUND_VARIABLE_435 BoundSet)) Bool true)
(define-fun IsOn ((BOUND_VARIABLE_434 BoundSet) (BOUND_VARIABLE_435 BoundSet)) Bool true)
(define-fun IsIn ((BOUND_VARIABLE_434 BoundSet) (BOUND_VARIABLE_435 BoundSet)) Bool true)
(define-fun IsOutside ((BOUND_VARIABLE_446 BoundSet)) Bool false)
)
sat
(model
; cardinality of BoundSet is 1
(declare-sort BoundSet 0)
; rep: @uc_BoundSet_0
; cardinality of UnboundSet is 1
(declare-sort UnboundSet 0)
(declare-fun groundTerm_7 () UnboundSet)
(define-fun PlaysTogether ((BOUND_VARIABLE_476 BoundSet) (BOUND_VARIABLE_477 BoundSet)) Bool true)
(define-fun IsOn ((BOUND_VARIABLE_476 BoundSet) (BOUND_VARIABLE_477 BoundSet)) Bool true)
(define-fun IsIn ((BOUND_VARIABLE_476 BoundSet) (BOUND_VARIABLE_477 BoundSet)) Bool true)
(define-fun IsOutside ((BOUND_VARIABLE_485 BoundSet)) Bool false)
)
